CMD:
./solvers/bin/cadical --plain --no-reduce -t 1600 ./data/cnfs//6s380b511/6s380b511.22.cnf

c --- [ banner ] -------------------------------------------------------------
c 
c CaDiCaL SAT Solver
c Copyright (c) 2016-2024
c A. Biere, M. Fleury, N. Froleyks, K. Fazekas, F. Pollitt, T. Faller
c JKU Linz, University of Freiburg, TU Wien
c 
c Version 2.1.3 5296d3d2a9bf48c154ab2acb5e44625776d821bf
c g++ (Gentoo 12.3.1_p20230526 p2) 12.3.1 20230526 -Wall -Wextra -O3 -DNDEBUG
c Sat Aug 9 07:26:21 PDT 2025 Linux cedar2.int.cedar.computecanada.ca 5.14.0-362.24.2.el9_3.x86_64 x86_64
c 
c --- [ limit ] --------------------------------------------------------------
c 
c setting time limit to 1600 seconds real time (due to '-t 1600')
c 
c --- [ parsing input ] ------------------------------------------------------
c 
c reading DIMACS file from './data/cnfs//6s380b511/6s380b511.22.cnf'
c opening file to read './data/cnfs//6s380b511/6s380b511.22.cnf'
c found 'p cnf 1002207 2851672' header
c parsed 2851672 clauses in 0.37 seconds process time
c 
c --- [ options ] ------------------------------------------------------------
c 
c   --compact=false                (different from default 'true')
c   --decompose=false              (different from default 'true')
c   --deduplicate=false            (different from default 'true')
c   --elim=false                   (different from default 'true')
c   --probe=false                  (different from default 'true')
c   --reduce=false                 (different from default 'true')
c   --subsume=false                (different from default 'true')
c   --ternary=false                (different from default 'true')
c   --transred=false               (different from default 'true')
c   --vivify=false                 (different from default 'true')
c 
c --- [ solving ] ------------------------------------------------------------
c 
c time measured in process time since initialization
c 
c  seconds   reductions  redundant   irredundant
c          MB    restarts       trail        variables
c           level   conflicts       glue           remaining
c 
c *  0.37 322  0 0   0    0    0  0% 0 1500546 112716 11%
c l  0.43 323  0 0   0    0    0  0% 0 1500546 112716 11%
c 1  0.43 323  0 0   0    0    0  0% 0 1500546 112716 11%
c 
c --- [ result ] -------------------------------------------------------------
c 
s SATISFIABLE
v 1 2 3 4 5 6 7 8 9 10 11 12 13 14 15 16 17 -18 -19 -20 -21 -22 -23 -24 -25
v -26 -27 -28 -29 -30 -31 -32 -33 -34 -35 -36 -37 -38 -39 -40 -41 -42 -43 44
v 45 46 47 48 49 50 -51 -52 -53 -54 -55 -56 -57 -58 -59 -60 -61 -62 -63 -64
v -65 -66 -67 -68 -69 -70 -71 -72 -73 -74 -75 -76 -77 -78 -79 -80 -81 -82 -83
v -84 -85 -86 -87 -88 -89 -90 -91 -92 -93 -94 -95 -96 -97 -98 -99 -100 -101
v -102 -103 -104 -105 -106 -107 -108 109 -110 -111 -112 -113 -114 115 116 -117
v -118 -119 120 121 122 -123 -124 -125 -126 -127 -128 -129 -130 -131 -132 -133
v -134 -135 -136 -137 -138 -139 -140 -141 -142 -143 -144 -145 -146 -147 -148
v -149 -150 -151 -152 -153 -154 -155 -156 -157 -158 -159 -160 -161 -162 -163
v -164 -165 -166 -167 -168 -169 -170 -171 -172 -173 -174 -175 -176 -177 -178
v -179 -180 -181 -182 -183 -184 -185 -186 -187 -188 -189 -190 -191 -192 -193
v -194 -195 -196 -197 -198 -199 -200 -201 -202 -203 -204 -205 -206 -207 -208
v -209 -210 -211 -212 -213 -214 -215 -216 -217 -218 -219 -220 -221 -222 -223
v -224 -225 -226 -227 -228 -229 -230 -231 -232 -233 -234 -235 -236 -237 -238
v -239 -240 -241 -242 -243 -244 -245 -246 -247 -248 -249 -250 -251 -252 -253
v -254 -255 -256 -257 -258 -259 -260 -261 -262 -263 -264 -265 -266 -267 -268
v -269 -270 -271 -272 -273 -274 -275 -276 -277 -278 -279 -280 -281 -282 -283
v -284 -285 -286 -287 -288 -289 -290 -291 -292 -293 -294 -295 -296 -297 -298
v -299 -300 -301 -302 -303 -304 -305 -306 -307 -308 -309 -310 -311 -312 -313
v -314 -315 -316 -317 -318 -319 -320 -321 -322 -323 -324 -325 -326 -327 -328
v -329 -330 -331 -332 -333 -334 -335 -336 -337 -338 -339 -340 -341 -342 -343
v -344 -345 -346 -347 -348 -349 -350 -351 -352 -353 -354 -355 -356 -357 -358
v -359 -360 -361 -362 -363 -364 -365 -366 -367 -368 -369 -370 -371 -372 -373
v -374 -375 -376 -377 -378 -379 -380 -381 -382 -383 -384 -385 -386 -387 -388
v -389 -390 -391 -392 -393 -394 -395 -396 -397 -398 -399 -400 -401 -402 -403
v -404 -405 -406 -407 -408 -409 -410 -411 -412 -413 -414 -415 -416 -417 -418
v -419 -420 -421 -422 -423 -424 -425 -426 -427 -428 -429 -430 -431 -432 -433
v -434 -435 -436 -437 -438 -439 -440 -441 -442 -443 -444 -445 -446 -447 -448
v -449 -450 -451 -452 -453 -454 -455 -456 -457 -458 -459 -460 -461 -462 -463
v -464 -465 -466 -467 -468 -469 -470 -471 -472 -473 -474 -475 -476 -477 -478
v -479 -480 -481 -482 -483 -484 -485 -486 -487 -488 -489 -490 -491 -492 -493
v -494 -495 -496 -497 -498 -499 -500 -501 -502 -503 -504 -505 -506 -507 -508
v -509 -510 -511 -512 -513 -514 -515 -516 -517 -518 -519 -520 -521 -522 -523
v -524 -525 -526 -527 -528 -529 -530 -531 -532 -533 -534 -535 -536 -537 -538
v -539 -540 -541 -542 -543 -544 -545 -546 -547 -548 -549 -550 -551 -552 -553
v -554 -555 -556 -557 -558 -559 -560 -561 -562 -563 -564 -565 -566 -567 -568
v -569 -570 -571 -572 -573 -574 -575 -576 -577 -578 -579 -580 -581 -582 -583
v -584 -585 -586 -587 -588 -589 -590 -591 -592 -593 -594 -595 -596 -597 -598
v -599 -600 -601 -602 -603 -604 -605 -606 -607 -608 -609 -610 -611 -612 -613
v -614 -615 -616 -617 -618 -619 -620 -621 -622 -623 -624 -625 -626 -627 -628
v -629 -630 -631 -632 -633 -634 -635 -636 -637 -638 -639 -640 -641 -642 -643
v -644 -645 -646 -647 -648 -649 -650 -651 -652 -653 -654 -655 -656 -657 -658
v -659 -660 -661 -662 -663 -664 -665 -666 -667 -668 -669 -670 -671 -672 -673
v -674 -675 -676 -677 -678 -679 -680 -681 -682 -683 -684 -685 -686 -687 -688
v -689 -690 -691 -692 -693 -694 -695 -696 -697 -698 -699 -700 -701 -702 -703
v -704 -705 -706 -707 -708 -709 -710 -711 -712 -713 -714 -715 -716 -717 -718
v -719 -720 -721 -722 -723 -724 -725 -726 -727 -728 -729 -730 -731 -732 -733
... skipped 99678 lines ...
v -1001681 -1001682 -1001683 1001684 -1001685 -1001686 1001687 1001688
v -1001689 -1001690 1001691 -1001692 -1001693 -1001694 1001695 -1001696
v -1001697 1001698 1001699 -1001700 -1001701 -1001702 1001703 1001704 1001705
v 1001706 -1001707 -1001708 1001709 1001710 -1001711 -1001712 1001713 1001714
v -1001715 -1001716 1001717 1001718 -1001719 -1001720 1001721 -1001722
v -1001723 -1001724 -1001725 -1001726 -1001727 1001728 1001729 -1001730
v -1001731 -1001732 -1001733 -1001734 -1001735 1001736 1001737 -1001738
v -1001739 1001740 1001741 -1001742 -1001743 -1001744 -1001745 -1001746
v -1001747 1001748 1001749 -1001750 -1001751 -1001752 -1001753 -1001754
v -1001755 1001756 1001757 -1001758 -1001759 1001760 1001761 -1001762 -1001763
v 1001764 1001765 -1001766 -1001767 1001768 -1001769 -1001770 -1001771
v -1001772 -1001773 -1001774 1001775 1001776 -1001777 -1001778 -1001779
v -1001780 -1001781 -1001782 1001783 1001784 -1001785 -1001786 1001787 1001788
v -1001789 -1001790 -1001791 -1001792 -1001793 -1001794 1001795 1001796
v -1001797 -1001798 -1001799 -1001800 1001801 -1001802 -1001803 1001804
v -1001805 -1001806 -1001807 -1001808 1001809 -1001810 1001811 1001812 1001813
v 1001814 1001815 -1001816 -1001817 -1001818 -1001819 1001820 -1001821
v -1001822 -1001823 -1001824 1001825 -1001826 -1001827 -1001828 1001829
v -1001830 1001831 1001832 -1001833 -1001834 -1001835 1001836 -1001837 1001838
v -1001839 -1001840 -1001841 1001842 -1001843 1001844 -1001845 -1001846
v -1001847 -1001848 1001849 -1001850 -1001851 -1001852 -1001853 1001854
v -1001855 -1001856 -1001857 1001858 -1001859 -1001860 1001861 -1001862
v -1001863 1001864 -1001865 -1001866 1001867 -1001868 -1001869 1001870
v -1001871 -1001872 1001873 -1001874 -1001875 1001876 -1001877 -1001878
v 1001879 -1001880 -1001881 1001882 -1001883 -1001884 -1001885 -1001886
v -1001887 1001888 -1001889 1001890 -1001891 1001892 -1001893 1001894 1001895
v -1001896 -1001897 -1001898 1001899 -1001900 -1001901 -1001902 1001903
v -1001904 -1001905 1001906 -1001907 -1001908 -1001909 1001910 -1001911
v -1001912 -1001913 1001914 -1001915 -1001916 -1001917 1001918 -1001919
v -1001920 -1001921 1001922 -1001923 -1001924 -1001925 1001926 -1001927
v -1001928 -1001929 1001930 -1001931 -1001932 -1001933 1001934 -1001935
v -1001936 -1001937 1001938 -1001939 -1001940 -1001941 1001942 -1001943
v -1001944 -1001945 1001946 -1001947 -1001948 -1001949 1001950 -1001951
v -1001952 -1001953 1001954 -1001955 -1001956 -1001957 1001958 -1001959
v -1001960 -1001961 1001962 -1001963 -1001964 -1001965 -1001966 -1001967
v 1001968 -1001969 1001970 -1001971 1001972 -1001973 1001974 1001975 -1001976
v -1001977 -1001978 1001979 -1001980 -1001981 1001982 -1001983 -1001984
v -1001985 1001986 1001987 1001988 1001989 1001990 -1001991 -1001992 -1001993
v -1001994 -1001995 -1001996 1001997 -1001998 -1001999 1002000 1002001
v -1002002 -1002003 -1002004 1002005 -1002006 -1002007 1002008 -1002009
v 1002010 -1002011 -1002012 1002013 1002014 1002015 1002016 -1002017 -1002018
v -1002019 -1002020 -1002021 -1002022 1002023 -1002024 -1002025 -1002026
v -1002027 -1002028 1002029 -1002030 1002031 -1002032 1002033 -1002034
v -1002035 -1002036 -1002037 1002038 -1002039 1002040 -1002041 -1002042
v -1002043 -1002044 1002045 -1002046 1002047 -1002048 -1002049 -1002050
v -1002051 1002052 -1002053 1002054 -1002055 1002056 -1002057 -1002058
v -1002059 -1002060 1002061 -1002062 1002063 -1002064 1002065 -1002066
v -1002067 -1002068 -1002069 1002070 -1002071 1002072 1002073 1002074 1002075
v 1002076 1002077 1002078 -1002079 -1002080 -1002081 -1002082 1002083 -1002084
v -1002085 -1002086 1002087 -1002088 1002089 1002090 1002091 1002092 -1002093
v -1002094 -1002095 -1002096 1002097 -1002098 -1002099 -1002100 1002101
v -1002102 1002103 1002104 1002105 -1002106 -1002107 -1002108 1002109 -1002110
v 1002111 -1002112 -1002113 -1002114 -1002115 1002116 -1002117 -1002118
v -1002119 -1002120 1002121 -1002122 -1002123 -1002124 -1002125 1002126
v -1002127 -1002128 -1002129 1002130 -1002131 -1002132 1002133 -1002134
v -1002135 1002136 -1002137 -1002138 1002139 -1002140 -1002141 1002142
v -1002143 -1002144 1002145 -1002146 -1002147 1002148 -1002149 -1002150
v 1002151 -1002152 -1002153 1002154 -1002155 -1002156 1002157 -1002158
v -1002159 -1002160 -1002161 -1002162 1002163 -1002164 1002165 -1002166
v 1002167 -1002168 1002169 1002170 -1002171 -1002172 -1002173 1002174 1002175
v -1002176 -1002177 1002178 1002179 -1002180 -1002181 -1002182 1002183 1002184
v -1002185 -1002186 1002187 1002188 -1002189 -1002190 -1002191 1002192 1002193
v -1002194 -1002195 1002196 -1002197 -1002198 1002199 -1002200 1002201
v -1002202 -1002203 1002204 -1002205 1002206 -1002207 0
c 
c --- [ run-time profiling ] -------------------------------------------------
c 
c process time taken by individual solving procedures
c (percentage relative to process time for solving)
c 
c         0.37  533.94% parse
c         0.07   99.82% search
c         0.07   99.82% lucky
c         0.00    0.00% simplify
c   =================================
c         0.07   14.24% solve
c 
c last line shows process time for solving
c (percentage relative to total process time)
c 
c --- [ statistics ] ---------------------------------------------------------
c 
c fixed:                    872345        87.04 %  of all variables
c lucky:                         1       100.00 %  of tried
c minimized:                     0         0.00 %  learned literals
c shrunken:                      0         0.00 %  learned literals
c minishrunken:                  0         0.00 %  learned literals
c propagations:             872345        12.75 M  per second
c 
c seconds are measured in process time for solving
c 
c --- [ resources ] ----------------------------------------------------------
c 
c total process time since initialization:         0.48    seconds
c total real time since initialization:            0.49    seconds
c maximum resident set size of process:          321.57    MB
c 
c --- [ shutting down ] ------------------------------------------------------
c 
c exit 10
